0
2
3
5
6
7
8
9
10
11
12
13
14
15
16
17
18
19
20
11,13,15
11,13,15,17
22
23
24
25
26
26,29
27
28
28,31
29
30
31
32
33
34
35
33,83
35,85
36
37
38
6,8,37,38
39
40
42
43
44
45
48
49
50
51
52
53
54
55
56
57
58
59
21,34,60,75,84,95
62
63
64
65
66
67
67,79
69
41,46,68,76,85
28,47,61,77,82
70
71
72
73
74
78
79
48,80
48,80
81
83
84
85
1,4,81,82
87
88
89
90
91
92
93
94
96
97
98
99
100
101
86,101
102
103
104
1,4,81,82,86,101
